10000   31   93   63   14   74   71   6   97   85   
59   10000   74   96   80   53   60   90   62   4   
27   87   10000   84   11   29   37   13   51   32   
34   94   71   10000   19   38   39   43   97   37   
55   50   5   67   10000   32   10   96   14   31   
47   70   45   91   36   10000   65   93   73   51   
32   47   70   22   49   28   10000   88   57   34   
25   97   95   78   73   33   95   10000   51   17   
80   94   47   43   57   23   33   17   10000   70   
42   26   53   78   30   37   59   61   37   10000   
